NAME : rdp110.1082551.tour
COMMENT : Cost = 0_1082551
COMMENT : Found by LKH [Keld Helsgaun] Thu Sep 14 16:33:42 2017
TYPE : TOUR
DIMENSION : 113
TOUR_SECTION
1
29
77
80
79
30
25
55
81
69
78
105
60
100
6
85
62
17
86
38
98
14
110
53
19
84
9
47
46
18
61
90
103
96
93
99
101
15
39
87
45
92
94
113
34
10
36
72
66
67
21
2
112
28
32
89
8
63
64
91
33
11
108
83
48
20
12
65
50
37
49
111
54
107
70
71
31
52
82
35
4
51
109
41
74
75
23
42
16
44
43
59
102
3
58
88
95
97
7
106
13
27
104
22
73
76
57
24
68
40
26
56
5
-1
EOF
